* Problem:
* Class:      LP
* Rows:       3
* Columns:    5
* Non-zeros:  7
* Format:     Fixed MPS
*
NAME
ROWS
 N  R0000000
 E  R0000001
 E  R0000002
 E  R0000003
COLUMNS
    C0000001  R0000001            -2
    C0000002  R0000002             1
    C0000003  R0000003             1
    C0000004  R0000000            -1   R0000003             3
    C0000004  R0000001             1
    C0000005  R0000000            -1   R0000003             2
    C0000005  R0000002             2
RHS
    RHS1      R0000001             4   R0000002            12
    RHS1      R0000003            18
ENDATA
